(set-info :smt-lib-version 2.6)
(set-logic AUFBVDTLIA)
(set-info :source |
Generated by: Andrew Reynolds
Generated on: 2017-04-28
Generator: Nunchaku, Leon, CVC4, converted to v2.6 by CVC4
Application: Counterexample generation for higher-order theorem provers
Target solver: CVC4, Z3
Publications: "Model Finding for Recursive Functions in SMT" by Andrew Reynolds, Jasmin Christian Blanchette, Simon Cruanes, and Cesare Tinelli, IJCAR 2016.
|)
(set-info :license "https://creativecommons.org/licenses/by/4.0/")
(set-info :category "industrial")
(set-info :status unknown)


(declare-datatypes ((Heap!972 0)) (((Leaf!973) (Node!974 (rk!975 (_ BitVec 32)) (value!976 (_ BitVec 32)) (left!977 Heap!972) (right!978 Heap!972)))
))
(declare-fun error_value!979 () Bool)
(declare-fun error_value!980 () (_ BitVec 32))
(declare-fun error_value!981 () (_ BitVec 32))
(declare-fun hasLeftistProperty!210 (Heap!972) Bool)
(declare-fun rightHeight!206 (Heap!972) (_ BitVec 32))
(declare-fun rank!208 (Heap!972) (_ BitVec 32))
(declare-fun error_value!982 () (_ BitVec 32))
(declare-fun heapSize!212 (Heap!972) (_ BitVec 32))
(declare-fun error_value!983 () (_ BitVec 32))
(assert (forall ((h!209 Heap!972)) (= (hasLeftistProperty!210 h!209) (ite ((_ is Leaf!973) h!209) true (ite ((_ is Node!974) h!209) (and (and (and (and (hasLeftistProperty!210 (left!977 h!209)) (hasLeftistProperty!210 (left!977 h!209))) (hasLeftistProperty!210 (right!978 h!209))) (bvsge (rightHeight!206 (left!977 h!209)) (rightHeight!206 (right!978 h!209)))) (= (rank!208 h!209) (rightHeight!206 h!209))) error_value!979))) ))
(assert (forall ((h!205 Heap!972)) (= (rightHeight!206 h!205) (ite ((_ is Leaf!973) h!205) (_ bv0 32) (ite ((_ is Node!974) h!205) (bvadd (rightHeight!206 (right!978 h!205)) (_ bv1 32)) error_value!980))) ))
(assert (forall ((h!207 Heap!972)) (= (rank!208 h!207) (ite ((_ is Leaf!973) h!207) (_ bv0 32) (ite ((_ is Node!974) h!207) (rk!975 h!207) error_value!981))) ))
(assert (forall ((t!211 Heap!972)) (= (heapSize!212 t!211) (ite ((_ is Leaf!973) t!211) (_ bv0 32) (ite ((_ is Node!974) t!211) (bvadd (bvadd (heapSize!212 (left!977 t!211)) (_ bv1 32)) (heapSize!212 (right!978 t!211))) error_value!982))) ))
(assert (not (forall ((t!211 Heap!972)) (or ((_ is Node!974) t!211) (not (bvslt (ite ((_ is Leaf!973) t!211) (_ bv0 32) (ite (not (hasLeftistProperty!210 t!211)) (bvadd (heapSize!212 (right!978 t!211)) (bvadd (heapSize!212 (left!977 t!211)) (_ bv1 32))) error_value!983)) (_ bv0 32)))) )))
(check-sat)
(exit)

